username,password,address
stress7@hk.com,hk_str,643995
stress8@hk.com,hk_str,643997
stress9@hk.com,hk_str,643999
stress10@hk.com,hk_str,644002
stress11@hk.com,hk_str,644005
stress12@hk.com,hk_str,644007
stress20@hk.com,hk_str,644032
stress21@hk.com,hk_str,644034
stress22@hk.com,hk_str,644035
stress23@hk.com,hk_str,644040
stress24@hk.com,hk_str,644043
stress25@hk.com,hk_str,644047
stress26@hk.com,hk_str,644052
stress27@hk.com,hk_str,644054
stress28@hk.com,hk_str,644056
stress29@hk.com,hk_str,644059
stress2@hk.com,hk_str,643823
stress30@hk.com,hk_str,644062
stress31@hk.com,hk_str,644067
stress32@hk.com,hk_str,644070
stress33@hk.com,hk_str,644073
stress34@hk.com,hk_str,644076
stress35@hk.com,hk_str,644079
stress36@hk.com,hk_str,644082
stress37@hk.com,hk_str,644083
stress38@hk.com,hk_str,644085
stress39@hk.com,hk_str,644087
